DIMENSION: 12
EDGE_WEIGHT_TYPE : EUC_2D
NODE_COORD_SECTION
1  0.190032E-03 -0.285946E-03
2   383.458     -0.608756E-03
3  -27.0206      -282.758    
4   335.751      -269.577    
5   69.4331      -246.780    
6   168.521       31.4012    
7   320.350      -160.900    
8   179.933      -318.031    
9   492.671      -131.563    
10  112.198      -110.561    
11  306.320      -108.090    
12  217.343      -447.089
TOUR_SECTION
1
2
3
4
5
6
7
8
9
10
11
12